endtime = 15;
SERVICE = { S0, S1, S2, S3, S4, S5, S6, S7, S8, S9, X0, X1, X2, X3, X4, X5, X6, X7, X8, X9 };
start =     [ 0, 0, 2, 2, 4, 4, 6, 6, 8, 8, 10, 10, 12, 12, 1, 1, 7, 7, 11, 11 ];
end   =     [ 2, 3, 4, 5, 6, 7, 8, 9, 10, 11, 12, 13, 14, 15, 5, 6, 11, 12, 14, 15 ];
STYPE = { Gas, Refit, Under };
stype =  [ Gas, Refit, Under, Under, Refit, Gas, Under, Gas, Refit, Gas, 
           Gas, Refit, Under, Refit, Under, Under, Refit, Refit, Gas, Under];
TRUCK = { DD, T1,  T2,  T3,  T4, T5, T6, T7, T8 };
dtruck = DD;
ttype = [ DUMMY, SML, SML, SML, MED, MED, MED, LRG, LRG ];
maxsty = [1,2,3,0];

maxmaint = 4;
maintdur = [0,1,3,5];
maxsep = [ 0, 5, 10, 0 ];

minwork = 20;
minservice = 30;

majorwork = 20;
prework = [ 0, 5, 5, 5, 10, 10, 5, 10, 20 ];

